nbGenes = 10;
preference = [[0 80 6 15 7 59 23 83 71 52 ]
[20 0 54 50 91 57 48 87 68 20 ]
[94 46 0 36 13 17 0 34 38 74 ]
[85 50 64 0 31 33 65 5 76 63 ]
[93 9 87 69 0 7 19 60 88 14 ]
[41 43 83 67 93 0 18 55 77 6 ]
[77 52 100 35 81 82 0 46 89 49 ]
[17 13 66 95 40 45 54 0 82 87 ]
[29 32 62 24 12 23 11 18 0 5 ]
[48 80 26 37 86 94 51 13 95 0 ]
];
